17	4	3
12	10	10	12	13	23	14	
0	0	0	0	0	6	10	4	8	3	8	3	2	3	4
10	0	0	0	4	9	2	2	10	4	9	3	5	7	8
1	0	0	0	10	6	10	6	6	1	2	1	11
9	4	0	0	0	5	9	5	1	8	3	2	6	16
3	6	0	0	0	1	8	5	2	4	9	2	15	17
25	3	0	0	0	5	10	8	8	7	1	2	10	12
175	0	4	0	0	5	6	2	7	5	6	3	9	14	17
25	0	0	0	2	6	1	6	1	7	6	1	13
100	10	0	0	0	3	1	4	7	1	2	1	17
250	0	0	0	2	10	1	10	4	3	4	1	17
150	0	0	10	0	2	7	3	10	4	10	3	14	16	17
50	0	0	0	6	10	9	5	2	6	10	2	13	17
3	0	7	0	0	7	1	1	3	2	7	2	17	17
1	0	0	3	0	8	4	7	2	10	8	1	17
3	0	0	0	6	4	10	9	4	4	2	2	16	17
1	0	0	10	0	7	6	8	10	5	2	1	17
0	0	0	0	0	10	5	1	4	7	6	0
